p tw 276 534
1 132
1 133
1 204
1 205
2 72
2 86
2 163
2 164
2 216
2 217
2 271
2 272
3 84
3 85
3 90
3 166
3 227
3 228
3 273
4 172
4 173
4 205
4 206
4 236
4 237
5 104
5 105
5 261
5 262
6 133
6 134
6 206
6 207
6 237
6 238
7 115
7 143
7 249
8 85
8 106
8 107
9 165
9 166
9 224
9 225
9 274
9 275
10 127
10 128
10 158
10 159
11 87
11 88
11 124
11 125
12 79
12 80
12 109
12 110
13 113
13 181
13 182
14 131
14 132
14 203
14 204
14 235
14 236
15 96
15 97
15 170
15 171
16 175
16 215
16 216
17 29
17 275
17 276
18 192
18 193
18 268
18 269
19 78
19 79
19 114
19 176
19 177
20 31
20 108
20 109
21 83
21 84
21 89
21 90
21 173
21 174
22 186
22 187
22 202
22 203
22 276
23 162
23 214
23 215
23 270
24 95
24 96
24 120
25 155
25 156
25 209
25 210
25 262
25 263
26 99
26 100
26 187
26 188
27 142
27 143
27 228
27 229
27 248
27 249
28 76
28 77
28 91
28 92
28 184
28 185
28 254
28 255
29 183
29 250
30 182
30 229
30 247
30 248
31 78
31 108
32 188
32 189
32 264
32 265
33 116
33 117
33 145
33 146
34 167
34 168
34 197
34 198
34 232
34 233
35 168
35 169
35 199
35 200
35 234
35 235
36 82
36 83
36 112
36 113
36 179
36 180
36 222
36 223
37 86
37 87
37 97
37 98
37 120
37 121
38 137
38 138
38 211
38 212
38 241
38 242
39 183
39 184
39 253
39 254
40 150
40 151
40 258
40 259
41 194
41 212
41 213
41 269
42 151
42 152
42 201
42 202
43 111
43 112
43 178
43 179
44 154
44 155
44 260
44 261
45 88
45 89
45 114
45 115
45 140
45 141
45 223
45 224
45 245
45 246
46 149
46 150
46 200
46 201
46 257
46 258
47 175
47 176
47 218
47 219
47 243
47 244
48 129
48 130
48 196
48 197
48 230
48 231
49 92
49 93
49 231
49 232
50 59
50 171
50 172
51 129
51 195
51 196
51 230
52 81
52 82
52 103
52 104
53 139
53 214
53 243
54 122
54 123
54 152
54 153
54 259
54 260
55 80
55 81
55 102
55 103
56 139
56 140
56 219
56 220
56 244
56 245
57 141
57 142
57 225
57 226
58 101
58 102
58 153
58 154
59 174
59 207
59 208
59 238
59 239
60 118
60 119
60 146
60 147
60 252
60 253
61 135
61 136
61 208
61 209
61 239
61 240
62 91
62 167
62 195
63 126
63 127
63 156
63 157
63 263
63 264
64 116
64 144
64 145
65 190
65 191
65 210
65 211
65 265
65 266
66 144
66 250
66 251
67 164
67 165
67 221
67 222
67 274
68 147
68 148
68 198
68 199
68 256
68 257
69 107
69 191
69 192
70 193
70 194
70 213
71 180
71 181
71 226
71 227
71 246
71 247
72 220
72 221
72 272
72 273
73 162
73 163
73 217
73 218
73 270
73 271
74 77
74 93
74 94
75 160
75 161
75 266
75 267
76 77
76 119
78 79
79 80
80 81
81 82
82 83
83 84
84 85
86 87
87 88
88 89
89 90
91 92
92 93
93 94
94 95
95 96
96 97
97 98
98 99
99 100
100 101
101 102
102 103
103 104
104 105
105 106
106 107
108 109
109 110
110 111
111 112
112 113
114 115
116 117
117 118
118 119
120 121
121 122
122 123
123 124
124 125
125 126
126 127
127 128
128 161
129 130
130 131
131 132
132 133
133 134
134 135
135 136
136 137
137 138
138 242
139 140
140 141
141 142
142 143
144 145
145 146
146 147
147 148
148 149
149 150
150 151
151 152
152 153
153 154
154 155
155 156
156 157
157 158
158 159
159 160
160 161
162 163
163 164
164 165
165 166
167 168
168 169
169 170
170 171
171 172
172 173
173 174
175 176
176 177
177 178
178 179
179 180
180 181
181 182
183 184
184 185
185 186
186 187
187 188
188 189
189 190
190 191
191 192
192 193
193 194
195 196
196 197
197 198
198 199
199 200
200 201
201 202
202 203
203 204
204 205
205 206
206 207
207 208
208 209
209 210
210 211
211 212
212 213
214 215
215 216
216 217
217 218
218 219
219 220
220 221
221 222
222 223
223 224
224 225
225 226
226 227
227 228
228 229
230 231
231 232
232 233
233 234
234 235
235 236
236 237
237 238
238 239
239 240
240 241
241 242
243 244
244 245
245 246
246 247
247 248
248 249
250 251
251 252
252 253
253 254
254 255
255 256
256 257
257 258
258 259
259 260
260 261
261 262
262 263
263 264
264 265
265 266
266 267
267 268
268 269
270 271
271 272
272 273
274 275
275 276
